W = 9;
H = 5;
cost = array2d(1..H,1..W,[3 | r in 1..H, c in 1..W]);
reward = [| 4, 0, 0, 0, 0, 0, 0, 0, 0
          | 0, 6, 0, 0, 2, 0, 0, 4, 0
          | 0, 0, 0, 0, 0, 0,-4, 0, 0
          | 0, 0, 4,-2, 0, 0, 0, 0, 0
          | 0, 0, 0, 0, 4, 0, 0, 2, 0
          |];
limit = 6;
budget = 18;
